c User generated cnf file
p cnf 11 30
4 -7 6 0 
10 -7 7 0 
7 -6 4 0 
3 1 -2 0 
7 8 -5 0 
10 7 -3 0 
3 -9 2 0 
8 7 -9 0 
3 -3 3 0 
7 -3 1 0 
7 9 -1 0 
2 7 -5 0 
11 6 -8 0 
3 11 -9 0 
3 8 -9 0 
1 -2 4 0 
1 -5 10 0 
4 7 -6 0 
2 -2 1 0 
11 -11 9 0 
6 6 -9 0 
5 -11 9 0 
1 -5 6 0 
3 -2 5 0 
8 -8 3 0 
1 3 -5 0 
9 2 -11 0 
7 -9 7 0 
10 -1 2 0 
4 -11 9 0 
